f:2104712
solution:
189 62 46 133 149 125 159 82 112 26 176 140 20 2 173 25 128 57 107 185 44 154 179 45 171 83 193 29 109 30 187 4 188 99 96 63 16 36 170 17 126 90 53 34 104 68 144 0 174 27 175 165 33 67 155 147 71 117 91 28 108 134 58 106 11 76 94 177 150 50 66 191 70 64 7 196 86 151 186 73 131 118 21 12 5 115 41 162 146 97 80 92 6 103 9 122 158 55 110 3 116 19 35 114 143 72 129 47 192 121 160 13 93 84 100 135 180 130 14 48 88 87 8 120 156 59 119 37 49 60 22 65 79 39 85 74 161 10 145 181 169 132 199 102 183 81 194 167 32 123 101 195 178 190 152 40 75 124 77 105 168 182 1 15 61 38 197 18 51 148 163 198 23 69 98 172 54 127 164 52 166 141 56 111 184 78 95 142 139 113 31 136 157 153 89 43 137 24 42 138 
